(set-info :smt-lib-version 2.6)
(set-logic UF)
(set-info :source |Benchmarks from the paper: "Extending Sledgehammer with SMT Solvers" by Jasmin Blanchette, Sascha Bohme, and Lawrence C. Paulson, CADE 2011.  Translated to SMT2 by Andrew Reynolds and Morgan Deters.|)
(set-info :category "industrial")
(set-info :status unknown)
(declare-sort S1 0)
(declare-sort S2 0)
(declare-sort S3 0)
(declare-sort S4 0)
(declare-sort S5 0)
(declare-sort S6 0)
(declare-sort S7 0)
(declare-sort S8 0)
(declare-sort S9 0)
(declare-sort S10 0)
(declare-sort S11 0)
(declare-sort S12 0)
(declare-sort S13 0)
(declare-sort S14 0)
(declare-sort S15 0)
(declare-sort S16 0)
(declare-sort S17 0)
(declare-sort S18 0)
(declare-sort S19 0)
(declare-sort S20 0)
(declare-sort S21 0)
(declare-sort S22 0)
(declare-sort S23 0)
(declare-sort S24 0)
(declare-sort S25 0)
(declare-sort S26 0)
(declare-sort S27 0)
(declare-sort S28 0)
(declare-sort S29 0)
(declare-sort S30 0)
(declare-sort S31 0)
(declare-sort S32 0)
(declare-sort S33 0)
(declare-sort S34 0)
(declare-sort S35 0)
(declare-sort S36 0)
(declare-sort S37 0)
(declare-sort S38 0)
(declare-sort S39 0)
(declare-sort S40 0)
(declare-sort S41 0)
(declare-sort S42 0)
(declare-sort S43 0)
(declare-sort S44 0)
(declare-sort S45 0)
(declare-sort S46 0)
(declare-sort S47 0)
(declare-sort S48 0)
(declare-sort S49 0)
(declare-sort S50 0)
(declare-sort S51 0)
(declare-sort S52 0)
(declare-sort S53 0)
(declare-sort S54 0)
(declare-sort S55 0)
(declare-sort S56 0)
(declare-sort S57 0)
(declare-fun f1 () S1)
(declare-fun f2 () S1)
(declare-fun f3 (S2 S2) S1)
(declare-fun f4 (S3 S4) S2)
(declare-fun f5 () S3)
(declare-fun f6 () S4)
(declare-fun f7 () S4)
(declare-fun f8 () S2)
(declare-fun f9 () S4)
(declare-fun f10 (S5 S4) S4)
(declare-fun f11 (S6 S4) S5)
(declare-fun f12 () S6)
(declare-fun f13 (S7 S2) S4)
(declare-fun f14 (S8 S4) S7)
(declare-fun f15 () S8)
(declare-fun f16 (S9 S10) S5)
(declare-fun f17 () S9)
(declare-fun f18 (S11 S10) S10)
(declare-fun f19 () S11)
(declare-fun f20 () S10)
(declare-fun f21 () S10)
(declare-fun f22 (S12 S10) S3)
(declare-fun f23 () S12)
(declare-fun f24 () S2)
(declare-fun f25 () S2)
(declare-fun f26 () S4)
(declare-fun f27 () S4)
(declare-fun f28 () S4)
(declare-fun f29 (S4 S4) S1)
(declare-fun f30 (S13 S14) S2)
(declare-fun f31 () S13)
(declare-fun f32 (S15 S2) S14)
(declare-fun f33 (S16 S14) S15)
(declare-fun f34 () S16)
(declare-fun f35 (S17 S14) S14)
(declare-fun f36 (S18 S2) S17)
(declare-fun f37 () S18)
(declare-fun f38 () S2)
(declare-fun f39 () S14)
(declare-fun f40 (S20 S21) S2)
(declare-fun f41 () S20)
(declare-fun f42 (S22 S2) S21)
(declare-fun f43 (S23 S21) S22)
(declare-fun f44 () S23)
(declare-fun f45 (S24 S21) S21)
(declare-fun f46 (S25 S19) S24)
(declare-fun f47 () S25)
(declare-fun f48 () S19)
(declare-fun f49 () S21)
(declare-fun f50 (S26 S27) S2)
(declare-fun f51 () S26)
(declare-fun f52 (S28 S2) S27)
(declare-fun f53 (S29 S27) S28)
(declare-fun f54 () S29)
(declare-fun f55 (S30 S27) S27)
(declare-fun f56 (S31 S21) S30)
(declare-fun f57 () S31)
(declare-fun f58 () S21)
(declare-fun f59 () S27)
(declare-fun f60 (S32 S33) S2)
(declare-fun f61 () S32)
(declare-fun f62 (S33 S2) S33)
(declare-fun f63 (S14 S33) S33)
(declare-fun f64 () S14)
(declare-fun f65 () S33)
(declare-fun f66 (S34 S35) S2)
(declare-fun f67 () S34)
(declare-fun f68 (S36 S2) S35)
(declare-fun f69 (S37 S35) S36)
(declare-fun f70 () S37)
(declare-fun f71 (S38 S35) S35)
(declare-fun f72 (S39 S4) S38)
(declare-fun f73 () S39)
(declare-fun f74 () S4)
(declare-fun f75 () S35)
(declare-fun f76 (S40 S2) S2)
(declare-fun f77 (S41 S2) S40)
(declare-fun f78 () S41)
(declare-fun f79 (S19 S19) S1)
(declare-fun f80 (S42 S2) S19)
(declare-fun f81 (S43 S19) S42)
(declare-fun f82 () S43)
(declare-fun f83 (S21 S21) S1)
(declare-fun f84 () S19)
(declare-fun f85 () S41)
(declare-fun f86 (S44 S19) S19)
(declare-fun f87 (S45 S19) S44)
(declare-fun f88 () S45)
(declare-fun f89 (S46 S21) S24)
(declare-fun f90 () S46)
(declare-fun f91 () S44)
(declare-fun f92 (S47 S2) S10)
(declare-fun f93 (S48 S10) S47)
(declare-fun f94 () S48)
(declare-fun f95 (S49 S10) S11)
(declare-fun f96 () S49)
(declare-fun f97 () S5)
(declare-fun f98 () S38)
(declare-fun f99 (S50 S35) S38)
(declare-fun f100 () S50)
(declare-fun f101 () S35)
(declare-fun f102 () S24)
(declare-fun f103 (S51 S4) S11)
(declare-fun f104 () S51)
(declare-fun f105 () S10)
(declare-fun f106 (S2 S2) S1)
(declare-fun f107 (S35 S35) S1)
(declare-fun f108 (S14 S14) S1)
(declare-fun f109 (S10 S10) S1)
(declare-fun f110 (S19 S19) S1)
(declare-fun f111 (S21 S21) S1)
(declare-fun f112 (S53 S2) S1)
(declare-fun f113 (S52 S2) S53)
(declare-fun f114 (S54 S19) S20)
(declare-fun f115 () S54)
(declare-fun f116 (S27 S27) S1)
(declare-fun f117 (S55 S21) S26)
(declare-fun f118 () S55)
(declare-fun f119 (S56 S4) S34)
(declare-fun f120 () S56)
(declare-fun f121 (S57 S14) S17)
(declare-fun f122 () S57)
(assert (not (= f1 f2)))
(assert (not (= (f3 (f4 f5 f6) (f4 f5 f7)) f1)))
(assert (= (f3 f8 (f4 f5 f6)) f1))
(assert (not (= f6 f9)))
(assert (= f7 (f10 (f11 f12 (f13 (f14 f15 (f10 (f16 f17 (f18 f19 f20)) (f10 (f16 f17 f21) f9))) (f4 (f22 f23 f20) f7))) f6)))
(assert (= (f3 f8 (f4 (f22 f23 f20) f7)) f1))
(assert (not (= f24 f8)))
(assert (not (= f25 f8)))
(assert (not (= f26 f9)))
(assert (not (= (f4 f5 f6) f8)))
(assert (= (f4 f5 f27) f24))
(assert (not (= (f4 (f22 f23 f20) f7) f8)))
(assert (not (= f7 f9)))
(assert (not (= f6 f9)))
(assert (= (f4 f5 f7) f25))
(assert (= f7 (f10 (f11 f12 (f13 (f14 f15 (f10 (f16 f17 (f18 f19 f20)) (f10 (f16 f17 f21) f9))) (f4 (f22 f23 f20) f7))) f6)))
(assert (=> (forall ((?v0 S4)) (=> (= f7 (f10 (f11 f12 (f13 (f14 f15 (f10 (f16 f17 (f18 f19 f20)) (f10 (f16 f17 f21) f9))) (f4 (f22 f23 f20) f7))) ?v0)) false)) false))
(assert (= f26 (f10 (f11 f12 (f10 (f16 f17 (f18 f19 f20)) (f10 (f16 f17 f21) f9))) f28)))
(assert (= (f29 (f13 (f14 f15 (f10 (f16 f17 (f18 f19 f20)) (f10 (f16 f17 f21) f9))) (f4 (f22 f23 f20) f7)) f7) f1))
(assert (=> (forall ((?v0 S4)) (=> (= f26 (f10 (f11 f12 (f10 (f16 f17 (f18 f19 f20)) (f10 (f16 f17 f21) f9))) ?v0)) false)) false))
(assert (forall ((?v0 S10) (?v1 S2)) (= (f4 f5 (f13 (f14 f15 (f10 (f16 f17 ?v0) (f10 (f16 f17 f21) f9))) ?v1)) ?v1)))
(assert (forall ((?v0 S2) (?v1 S2)) (= (f30 f31 (f32 (f33 f34 (f35 (f36 f37 ?v0) (f35 (f36 f37 f38) f39))) ?v1)) ?v1)))
(assert (forall ((?v0 S19) (?v1 S2)) (= (f40 f41 (f42 (f43 f44 (f45 (f46 f47 ?v0) (f45 (f46 f47 f48) f49))) ?v1)) ?v1)))
(assert (forall ((?v0 S21) (?v1 S2)) (= (f50 f51 (f52 (f53 f54 (f55 (f56 f57 ?v0) (f55 (f56 f57 f58) f59))) ?v1)) ?v1)))
(assert (forall ((?v0 S14) (?v1 S2)) (= (f60 f61 (f62 (f63 ?v0 (f63 f64 f65)) ?v1)) ?v1)))
(assert (forall ((?v0 S4) (?v1 S2)) (= (f66 f67 (f68 (f69 f70 (f71 (f72 f73 ?v0) (f71 (f72 f73 f74) f75))) ?v1)) ?v1)))
(assert (forall ((?v0 S2)) (=> (= (f3 ?v0 f8) f1) false)))
(assert (forall ((?v0 S2) (?v1 S2)) (=> (= (f3 f38 ?v0) f1) (=> (= (f3 f8 ?v1) f1) (= (f3 f38 (f76 (f77 f78 ?v0) ?v1)) f1)))))
(assert (forall ((?v0 S19) (?v1 S2)) (=> (= (f79 f48 ?v0) f1) (=> (= (f3 f8 ?v1) f1) (= (f79 f48 (f80 (f81 f82 ?v0) ?v1)) f1)))))
(assert (forall ((?v0 S21) (?v1 S2)) (=> (= (f83 f58 ?v0) f1) (=> (= (f3 f8 ?v1) f1) (= (f83 f58 (f42 (f43 f44 ?v0) ?v1)) f1)))))
(assert (forall ((?v0 S2) (?v1 S2) (?v2 S2)) (let ((?v_0 (f77 f78 ?v2))) (=> (= (f3 ?v0 ?v1) f1) (=> (= (f3 f8 ?v2) f1) (=> (= (f3 ?v2 f38) f1) (= (f3 (f76 ?v_0 ?v1) (f76 ?v_0 ?v0)) f1)))))))
(assert (forall ((?v0 S2) (?v1 S2) (?v2 S19)) (let ((?v_0 (f81 f82 ?v2))) (=> (= (f3 ?v0 ?v1) f1) (=> (= (f79 f84 ?v2) f1) (=> (= (f79 ?v2 f48) f1) (= (f79 (f80 ?v_0 ?v1) (f80 ?v_0 ?v0)) f1)))))))
(assert (forall ((?v0 S2) (?v1 S2) (?v2 S21)) (let ((?v_0 (f43 f44 ?v2))) (=> (= (f3 ?v0 ?v1) f1) (=> (= (f83 f49 ?v2) f1) (=> (= (f83 ?v2 f58) f1) (= (f83 (f42 ?v_0 ?v1) (f42 ?v_0 ?v0)) f1)))))))
(assert (forall ((?v0 S2) (?v1 S2)) (let ((?v_0 (f76 (f77 f78 ?v0) ?v1))) (=> (= (f3 f8 ?v0) f1) (=> (= (f3 ?v0 f38) f1) (= (f3 (f76 (f77 f85 ?v0) ?v_0) ?v_0) f1))))))
(assert (forall ((?v0 S19) (?v1 S2)) (let ((?v_0 (f80 (f81 f82 ?v0) ?v1))) (=> (= (f79 f84 ?v0) f1) (=> (= (f79 ?v0 f48) f1) (= (f79 (f86 (f87 f88 ?v0) ?v_0) ?v_0) f1))))))
(assert (forall ((?v0 S21) (?v1 S2)) (let ((?v_0 (f42 (f43 f44 ?v0) ?v1))) (=> (= (f83 f49 ?v0) f1) (=> (= (f83 ?v0 f58) f1) (= (f83 (f45 (f89 f90 ?v0) ?v_0) ?v_0) f1))))))
(assert (forall ((?v0 S10)) (= (f4 f5 (f10 (f16 f17 ?v0) f9)) f8)))
(assert (forall ((?v0 S4)) (= (f66 f67 (f71 (f72 f73 ?v0) f75)) f8)))
(assert (forall ((?v0 S2)) (= (f30 f31 (f35 (f36 f37 ?v0) f39)) f8)))
(assert (forall ((?v0 S19)) (= (f40 f41 (f45 (f46 f47 ?v0) f49)) f8)))
(assert (forall ((?v0 S2) (?v1 S2) (?v2 S2)) (let ((?v_0 (f77 f78 ?v0))) (=> (= (f3 f38 ?v0) f1) (= (= (f3 (f76 ?v_0 ?v1) (f76 ?v_0 ?v2)) f1) (= (f3 ?v1 ?v2) f1))))))
(assert (forall ((?v0 S19) (?v1 S2) (?v2 S2)) (let ((?v_0 (f81 f82 ?v0))) (=> (= (f79 f48 ?v0) f1) (= (= (f79 (f80 ?v_0 ?v1) (f80 ?v_0 ?v2)) f1) (= (f3 ?v1 ?v2) f1))))))
(assert (forall ((?v0 S21) (?v1 S2) (?v2 S2)) (let ((?v_0 (f43 f44 ?v0))) (=> (= (f83 f58 ?v0) f1) (= (= (f83 (f42 ?v_0 ?v1) (f42 ?v_0 ?v2)) f1) (= (f3 ?v1 ?v2) f1))))))
(assert (forall ((?v0 S2) (?v1 S2) (?v2 S2)) (let ((?v_0 (f77 f78 ?v0))) (=> (= (f3 f38 ?v0) f1) (=> (= (f3 (f76 ?v_0 ?v1) (f76 ?v_0 ?v2)) f1) (= (f3 ?v1 ?v2) f1))))))
(assert (forall ((?v0 S19) (?v1 S2) (?v2 S2)) (let ((?v_0 (f81 f82 ?v0))) (=> (= (f79 f48 ?v0) f1) (=> (= (f79 (f80 ?v_0 ?v1) (f80 ?v_0 ?v2)) f1) (= (f3 ?v1 ?v2) f1))))))
(assert (forall ((?v0 S21) (?v1 S2) (?v2 S2)) (let ((?v_0 (f43 f44 ?v0))) (=> (= (f83 f58 ?v0) f1) (=> (= (f83 (f42 ?v_0 ?v1) (f42 ?v_0 ?v2)) f1) (= (f3 ?v1 ?v2) f1))))))
(assert (forall ((?v0 S2) (?v1 S2) (?v2 S2)) (let ((?v_0 (f77 f78 ?v2))) (=> (= (f3 ?v0 ?v1) f1) (=> (= (f3 f38 ?v2) f1) (= (f3 (f76 ?v_0 ?v0) (f76 ?v_0 ?v1)) f1))))))
(assert (forall ((?v0 S2) (?v1 S2) (?v2 S19)) (let ((?v_0 (f81 f82 ?v2))) (=> (= (f3 ?v0 ?v1) f1) (=> (= (f79 f48 ?v2) f1) (= (f79 (f80 ?v_0 ?v0) (f80 ?v_0 ?v1)) f1))))))
(assert (forall ((?v0 S2) (?v1 S2) (?v2 S21)) (let ((?v_0 (f43 f44 ?v2))) (=> (= (f3 ?v0 ?v1) f1) (=> (= (f83 f58 ?v2) f1) (= (f83 (f42 ?v_0 ?v0) (f42 ?v_0 ?v1)) f1))))))
(assert (forall ((?v0 S19) (?v1 S2)) (= (f80 (f81 f82 (f86 f91 ?v0)) ?v1) (f86 (f87 f88 (f80 (f81 f82 (f86 f91 f48)) ?v1)) (f80 (f81 f82 ?v0) ?v1)))))
(assert (forall ((?v0 S10) (?v1 S2)) (= (f92 (f93 f94 (f18 f19 ?v0)) ?v1) (f18 (f95 f96 (f92 (f93 f94 (f18 f19 f21)) ?v1)) (f92 (f93 f94 ?v0) ?v1)))))
(assert (forall ((?v0 S4) (?v1 S2)) (= (f13 (f14 f15 (f10 f97 ?v0)) ?v1) (f10 (f11 f12 (f13 (f14 f15 (f10 f97 f74)) ?v1)) (f13 (f14 f15 ?v0) ?v1)))))
(assert (forall ((?v0 S35) (?v1 S2)) (= (f68 (f69 f70 (f71 f98 ?v0)) ?v1) (f71 (f99 f100 (f68 (f69 f70 (f71 f98 f101)) ?v1)) (f68 (f69 f70 ?v0) ?v1)))))
(assert (forall ((?v0 S21) (?v1 S2)) (= (f42 (f43 f44 (f45 f102 ?v0)) ?v1) (f45 (f89 f90 (f42 (f43 f44 (f45 f102 f58)) ?v1)) (f42 (f43 f44 ?v0) ?v1)))))
(assert (=> (= f26 f9) (= (f29 f7 (f13 (f14 f15 f26) f25)) f1)))
(assert (= (f29 (f10 (f16 f17 (f18 f19 f20)) (f10 (f16 f17 f21) f9)) f26) f1))
(assert (=> (= (f4 f5 f6) f8) (= (f29 f7 (f13 (f14 f15 f26) f25)) f1)))
(assert (= (f18 (f103 f104 f7) f20) f105))
(assert (forall ((?v0 S10)) (=> (= (f18 (f103 f104 f7) ?v0) f105) (= (f18 (f103 f104 f26) ?v0) f105))))
(assert (forall ((?v0 S2) (?v1 S2)) (=> (= ?v0 (f76 (f77 f85 ?v0) ?v1)) (or (= ?v1 f38) (= ?v0 f8)))))
(assert (forall ((?v0 S4) (?v1 S4) (?v2 S2)) (=> (= (f29 ?v0 ?v1) f1) (= (f29 (f13 (f14 f15 ?v0) ?v2) (f13 (f14 f15 ?v1) ?v2)) f1))))
(assert (forall ((?v0 S2) (?v1 S2) (?v2 S2)) (=> (= (f106 ?v0 ?v1) f1) (= (f106 (f76 (f77 f78 ?v0) ?v2) (f76 (f77 f78 ?v1) ?v2)) f1))))
(assert (forall ((?v0 S35) (?v1 S35) (?v2 S2)) (=> (= (f107 ?v0 ?v1) f1) (= (f107 (f68 (f69 f70 ?v0) ?v2) (f68 (f69 f70 ?v1) ?v2)) f1))))
(assert (forall ((?v0 S14) (?v1 S14) (?v2 S2)) (=> (= (f108 ?v0 ?v1) f1) (= (f108 (f32 (f33 f34 ?v0) ?v2) (f32 (f33 f34 ?v1) ?v2)) f1))))
(assert (forall ((?v0 S10) (?v1 S10) (?v2 S2)) (=> (= (f109 ?v0 ?v1) f1) (= (f109 (f92 (f93 f94 ?v0) ?v2) (f92 (f93 f94 ?v1) ?v2)) f1))))
(assert (forall ((?v0 S19) (?v1 S19) (?v2 S2)) (=> (= (f110 ?v0 ?v1) f1) (= (f110 (f80 (f81 f82 ?v0) ?v2) (f80 (f81 f82 ?v1) ?v2)) f1))))
(assert (forall ((?v0 S21) (?v1 S21) (?v2 S2)) (=> (= (f111 ?v0 ?v1) f1) (= (f111 (f42 (f43 f44 ?v0) ?v2) (f42 (f43 f44 ?v1) ?v2)) f1))))
(assert (forall ((?v0 S2) (?v1 S2) (?v2 S2)) (= (= (f76 (f77 f85 ?v0) ?v1) (f76 (f77 f85 ?v2) ?v1)) (or (= ?v0 ?v2) (= ?v1 f8)))))
(assert (forall ((?v0 S2) (?v1 S2) (?v2 S2)) (let ((?v_0 (f77 f85 ?v0))) (= (= (f76 ?v_0 ?v1) (f76 ?v_0 ?v2)) (or (= ?v1 ?v2) (= ?v0 f8))))))
(assert (forall ((?v0 S2) (?v1 S2)) (= (= (f76 (f77 f85 ?v0) ?v1) f8) (or (= ?v0 f8) (= ?v1 f8)))))
(assert (forall ((?v0 S2)) (= (f76 (f77 f85 ?v0) f8) f8)))
(assert (forall ((?v0 S2)) (= (f76 (f77 f85 f8) ?v0) f8)))
(assert (forall ((?v0 S2) (?v1 S2) (?v2 S2)) (let ((?v_0 (f77 f78 ?v0))) (= (f76 ?v_0 (f76 (f77 f85 ?v1) ?v2)) (f76 (f77 f78 (f76 ?v_0 ?v1)) ?v2)))))
(assert (forall ((?v0 S4) (?v1 S2) (?v2 S2)) (let ((?v_0 (f14 f15 ?v0))) (= (f13 ?v_0 (f76 (f77 f85 ?v1) ?v2)) (f13 (f14 f15 (f13 ?v_0 ?v1)) ?v2)))))
(assert (forall ((?v0 S35) (?v1 S2) (?v2 S2)) (let ((?v_0 (f69 f70 ?v0))) (= (f68 ?v_0 (f76 (f77 f85 ?v1) ?v2)) (f68 (f69 f70 (f68 ?v_0 ?v1)) ?v2)))))
(assert (forall ((?v0 S14) (?v1 S2) (?v2 S2)) (let ((?v_0 (f33 f34 ?v0))) (= (f32 ?v_0 (f76 (f77 f85 ?v1) ?v2)) (f32 (f33 f34 (f32 ?v_0 ?v1)) ?v2)))))
(assert (forall ((?v0 S21) (?v1 S2) (?v2 S2)) (let ((?v_0 (f43 f44 ?v0))) (= (f42 ?v_0 (f76 (f77 f85 ?v1) ?v2)) (f42 (f43 f44 (f42 ?v_0 ?v1)) ?v2)))))
(assert (forall ((?v0 S10) (?v1 S2) (?v2 S2)) (let ((?v_0 (f93 f94 ?v0))) (= (f92 ?v_0 (f76 (f77 f85 ?v1) ?v2)) (f92 (f93 f94 (f92 ?v_0 ?v1)) ?v2)))))
(assert (forall ((?v0 S19) (?v1 S2) (?v2 S2)) (let ((?v_0 (f81 f82 ?v0))) (= (f80 ?v_0 (f76 (f77 f85 ?v1) ?v2)) (f80 (f81 f82 (f80 ?v_0 ?v1)) ?v2)))))
(assert (forall ((?v0 S2)) (= (f76 (f77 f78 ?v0) f38) ?v0)))
(assert (forall ((?v0 S4)) (= (f13 (f14 f15 ?v0) f38) ?v0)))
(assert (forall ((?v0 S35)) (= (f68 (f69 f70 ?v0) f38) ?v0)))
(assert (forall ((?v0 S14)) (= (f32 (f33 f34 ?v0) f38) ?v0)))
(assert (forall ((?v0 S21)) (= (f42 (f43 f44 ?v0) f38) ?v0)))
(assert (forall ((?v0 S10)) (= (f92 (f93 f94 ?v0) f38) ?v0)))
(assert (forall ((?v0 S19)) (= (f80 (f81 f82 ?v0) f38) ?v0)))
(assert (= (f10 f97 f9) f9))
(assert (= (f71 f98 f75) f75))
(assert (= (f45 f102 f49) f49))
(assert (forall ((?v0 S4)) (= (f4 f5 (f10 f97 ?v0)) (f4 f5 ?v0))))
(assert (forall ((?v0 S35)) (= (f66 f67 (f71 f98 ?v0)) (f66 f67 ?v0))))
(assert (forall ((?v0 S21)) (= (f40 f41 (f45 f102 ?v0)) (f40 f41 ?v0))))
(assert (forall ((?v0 S2) (?v1 S2) (?v2 S2)) (let ((?v_0 (f77 f78 ?v0))) (=> (= (f3 f8 ?v0) f1) (=> (= (f3 (f76 ?v_0 ?v1) (f76 ?v_0 ?v2)) f1) (= (f3 ?v1 ?v2) f1))))))
(assert (forall ((?v0 S2) (?v1 S2)) (= (= (f3 f8 (f76 (f77 f78 ?v0) ?v1)) f1) (or (= (f3 f8 ?v0) f1) (= ?v1 f8)))))
(assert (forall ((?v0 S2) (?v1 S2) (?v2 S2)) (let ((?v_0 (f77 f85 ?v2))) (=> (= (f3 ?v0 ?v1) f1) (=> (= (f3 f8 ?v2) f1) (= (f3 (f76 ?v_0 ?v0) (f76 ?v_0 ?v1)) f1))))))
(assert (forall ((?v0 S2) (?v1 S2) (?v2 S2)) (=> (= (f3 ?v0 ?v1) f1) (=> (= (f3 f8 ?v2) f1) (= (f3 (f76 (f77 f85 ?v0) ?v2) (f76 (f77 f85 ?v1) ?v2)) f1)))))
(assert (forall ((?v0 S2) (?v1 S2) (?v2 S2)) (= (= (f3 (f76 (f77 f85 ?v0) ?v1) (f76 (f77 f85 ?v2) ?v1)) f1) (and (= (f3 f8 ?v1) f1) (= (f3 ?v0 ?v2) f1)))))
(assert (forall ((?v0 S2) (?v1 S2) (?v2 S2)) (let ((?v_0 (f77 f85 ?v0))) (= (= (f3 (f76 ?v_0 ?v1) (f76 ?v_0 ?v2)) f1) (and (= (f3 f8 ?v0) f1) (= (f3 ?v1 ?v2) f1))))))
(assert (forall ((?v0 S2) (?v1 S2)) (= (= (f3 f8 (f76 (f77 f85 ?v0) ?v1)) f1) (and (= (f3 f8 ?v0) f1) (= (f3 f8 ?v1) f1)))))
(assert (= (f4 f5 f74) f8))
(assert (= (f66 f67 f101) f8))
(assert (= (f40 f41 f58) f8))
(assert (= (f30 f31 f64) f8))
(assert (forall ((?v0 S2) (?v1 S4)) (=> (or (= (f3 f8 ?v0) f1) (= ?v1 f74)) (= (f29 ?v1 (f13 (f14 f15 ?v1) ?v0)) f1))))
(assert (forall ((?v0 S2) (?v1 S2)) (=> (or (= (f3 f8 ?v0) f1) (= ?v1 f38)) (= (f106 ?v1 (f76 (f77 f78 ?v1) ?v0)) f1))))
(assert (forall ((?v0 S2) (?v1 S19)) (=> (or (= (f3 f8 ?v0) f1) (= ?v1 f48)) (= (f110 ?v1 (f80 (f81 f82 ?v1) ?v0)) f1))))
(assert (forall ((?v0 S2) (?v1 S10)) (=> (or (= (f3 f8 ?v0) f1) (= ?v1 f21)) (= (f109 ?v1 (f92 (f93 f94 ?v1) ?v0)) f1))))
(assert (forall ((?v0 S2) (?v1 S35)) (=> (or (= (f3 f8 ?v0) f1) (= ?v1 f101)) (= (f107 ?v1 (f68 (f69 f70 ?v1) ?v0)) f1))))
(assert (forall ((?v0 S2) (?v1 S14)) (=> (or (= (f3 f8 ?v0) f1) (= ?v1 f64)) (= (f108 ?v1 (f32 (f33 f34 ?v1) ?v0)) f1))))
(assert (forall ((?v0 S2) (?v1 S21)) (=> (or (= (f3 f8 ?v0) f1) (= ?v1 f58)) (= (f111 ?v1 (f42 (f43 f44 ?v1) ?v0)) f1))))
(assert (forall ((?v0 S2) (?v1 S2) (?v2 S52)) (let ((?v_0 (= (f112 (f113 ?v2 ?v1) ?v0) f1))) (=> (=> (= (f3 ?v0 ?v1) f1) ?v_0) (=> (=> (= ?v0 ?v1) ?v_0) (=> (=> (= (f3 ?v1 ?v0) f1) ?v_0) ?v_0))))))
(assert (forall ((?v0 S2) (?v1 S2)) (=> (= (f3 ?v0 ?v1) f1) (not (= ?v0 ?v1)))))
(assert (forall ((?v0 S2) (?v1 S2)) (=> (= (f3 ?v0 ?v1) f1) (not (= ?v1 ?v0)))))
(assert (forall ((?v0 S2)) (=> (= (f3 ?v0 ?v0) f1) false)))
(assert (forall ((?v0 S2) (?v1 S2)) (=> (not (= ?v0 ?v1)) (=> (=> (= (f3 ?v0 ?v1) f1) false) (=> (=> (= (f3 ?v1 ?v0) f1) false) false)))))
(assert (forall ((?v0 S2) (?v1 S2)) (= (not (= ?v0 ?v1)) (or (= (f3 ?v0 ?v1) f1) (= (f3 ?v1 ?v0) f1)))))
(assert (forall ((?v0 S2)) (not (= (f3 ?v0 ?v0) f1))))
(assert (forall ((?v0 S10) (?v1 S4) (?v2 S10) (?v3 S4)) (= (= (f10 (f16 f17 ?v0) ?v1) (f10 (f16 f17 ?v2) ?v3)) (and (= ?v0 ?v2) (= ?v1 ?v3)))))
(assert (forall ((?v0 S4) (?v1 S35) (?v2 S4) (?v3 S35)) (= (= (f71 (f72 f73 ?v0) ?v1) (f71 (f72 f73 ?v2) ?v3)) (and (= ?v0 ?v2) (= ?v1 ?v3)))))
(assert (forall ((?v0 S2) (?v1 S14) (?v2 S2) (?v3 S14)) (= (= (f35 (f36 f37 ?v0) ?v1) (f35 (f36 f37 ?v2) ?v3)) (and (= ?v0 ?v2) (= ?v1 ?v3)))))
(assert (forall ((?v0 S19) (?v1 S21) (?v2 S19) (?v3 S21)) (= (= (f45 (f46 f47 ?v0) ?v1) (f45 (f46 f47 ?v2) ?v3)) (and (= ?v0 ?v2) (= ?v1 ?v3)))))
(assert (forall ((?v0 S10) (?v1 S4)) (= (f29 (f13 (f14 f15 (f10 (f16 f17 (f18 f19 ?v0)) (f10 (f16 f17 f21) f9))) (f4 (f22 f23 ?v0) ?v1)) ?v1) f1)))
(assert (forall ((?v0 S19) (?v1 S21)) (= (f111 (f42 (f43 f44 (f45 (f46 f47 (f86 f91 ?v0)) (f45 (f46 f47 f48) f49))) (f40 (f114 f115 ?v0) ?v1)) ?v1) f1)))
(assert (forall ((?v0 S21) (?v1 S27)) (= (f116 (f52 (f53 f54 (f55 (f56 f57 (f45 f102 ?v0)) (f55 (f56 f57 f58) f59))) (f50 (f117 f118 ?v0) ?v1)) ?v1) f1)))
(assert (forall ((?v0 S4) (?v1 S35)) (= (f107 (f68 (f69 f70 (f71 (f72 f73 (f10 f97 ?v0)) (f71 (f72 f73 f74) f75))) (f66 (f119 f120 ?v0) ?v1)) ?v1) f1)))
(assert (forall ((?v0 S10) (?v1 S2)) (=> (not (= ?v0 f105)) (not (= (f92 (f93 f94 ?v0) ?v1) f105)))))
(assert (forall ((?v0 S4) (?v1 S2)) (=> (not (= ?v0 f9)) (not (= (f13 (f14 f15 ?v0) ?v1) f9)))))
(assert (forall ((?v0 S35) (?v1 S2)) (=> (not (= ?v0 f75)) (not (= (f68 (f69 f70 ?v0) ?v1) f75)))))
(assert (forall ((?v0 S19) (?v1 S2)) (=> (not (= ?v0 f84)) (not (= (f80 (f81 f82 ?v0) ?v1) f84)))))
(assert (forall ((?v0 S21) (?v1 S2)) (=> (not (= ?v0 f49)) (not (= (f42 (f43 f44 ?v0) ?v1) f49)))))
(assert (forall ((?v0 S2) (?v1 S2) (?v2 S2)) (= (f76 (f77 f78 (f76 (f77 f85 ?v0) ?v1)) ?v2) (f76 (f77 f85 (f76 (f77 f78 ?v0) ?v2)) (f76 (f77 f78 ?v1) ?v2)))))
(assert (forall ((?v0 S4) (?v1 S4) (?v2 S2)) (= (f13 (f14 f15 (f10 (f11 f12 ?v0) ?v1)) ?v2) (f10 (f11 f12 (f13 (f14 f15 ?v0) ?v2)) (f13 (f14 f15 ?v1) ?v2)))))
(assert (forall ((?v0 S35) (?v1 S35) (?v2 S2)) (= (f68 (f69 f70 (f71 (f99 f100 ?v0) ?v1)) ?v2) (f71 (f99 f100 (f68 (f69 f70 ?v0) ?v2)) (f68 (f69 f70 ?v1) ?v2)))))
(assert (forall ((?v0 S14) (?v1 S14) (?v2 S2)) (= (f32 (f33 f34 (f35 (f121 f122 ?v0) ?v1)) ?v2) (f35 (f121 f122 (f32 (f33 f34 ?v0) ?v2)) (f32 (f33 f34 ?v1) ?v2)))))
(assert (forall ((?v0 S21) (?v1 S21) (?v2 S2)) (= (f42 (f43 f44 (f45 (f89 f90 ?v0) ?v1)) ?v2) (f45 (f89 f90 (f42 (f43 f44 ?v0) ?v2)) (f42 (f43 f44 ?v1) ?v2)))))
(assert (forall ((?v0 S10) (?v1 S10) (?v2 S2)) (= (f92 (f93 f94 (f18 (f95 f96 ?v0) ?v1)) ?v2) (f18 (f95 f96 (f92 (f93 f94 ?v0) ?v2)) (f92 (f93 f94 ?v1) ?v2)))))
(assert (forall ((?v0 S19) (?v1 S19) (?v2 S2)) (= (f80 (f81 f82 (f86 (f87 f88 ?v0) ?v1)) ?v2) (f86 (f87 f88 (f80 (f81 f82 ?v0) ?v2)) (f80 (f81 f82 ?v1) ?v2)))))
(assert (forall ((?v0 S2) (?v1 S2)) (let ((?v_0 (f76 (f77 f78 ?v0) ?v1))) (= (f76 (f77 f85 ?v_0) ?v0) (f76 (f77 f85 ?v0) ?v_0)))))
(assert (forall ((?v0 S4) (?v1 S2)) (let ((?v_0 (f13 (f14 f15 ?v0) ?v1))) (= (f10 (f11 f12 ?v_0) ?v0) (f10 (f11 f12 ?v0) ?v_0)))))
(assert (forall ((?v0 S35) (?v1 S2)) (let ((?v_0 (f68 (f69 f70 ?v0) ?v1))) (= (f71 (f99 f100 ?v_0) ?v0) (f71 (f99 f100 ?v0) ?v_0)))))
(assert (forall ((?v0 S14) (?v1 S2)) (let ((?v_0 (f32 (f33 f34 ?v0) ?v1))) (= (f35 (f121 f122 ?v_0) ?v0) (f35 (f121 f122 ?v0) ?v_0)))))
(assert (forall ((?v0 S21) (?v1 S2)) (let ((?v_0 (f42 (f43 f44 ?v0) ?v1))) (= (f45 (f89 f90 ?v_0) ?v0) (f45 (f89 f90 ?v0) ?v_0)))))
(assert (forall ((?v0 S10) (?v1 S2)) (let ((?v_0 (f92 (f93 f94 ?v0) ?v1))) (= (f18 (f95 f96 ?v_0) ?v0) (f18 (f95 f96 ?v0) ?v_0)))))
(assert (forall ((?v0 S19) (?v1 S2)) (let ((?v_0 (f80 (f81 f82 ?v0) ?v1))) (= (f86 (f87 f88 ?v_0) ?v0) (f86 (f87 f88 ?v0) ?v_0)))))
(assert (forall ((?v0 S2)) (= (f76 (f77 f78 f38) ?v0) f38)))
(assert (forall ((?v0 S2)) (= (f80 (f81 f82 f48) ?v0) f48)))
(assert (forall ((?v0 S2)) (= (f92 (f93 f94 f21) ?v0) f21)))
(assert (forall ((?v0 S2)) (= (f13 (f14 f15 f74) ?v0) f74)))
(assert (forall ((?v0 S2)) (= (f68 (f69 f70 f101) ?v0) f101)))
(assert (forall ((?v0 S2)) (= (f32 (f33 f34 f64) ?v0) f64)))
(assert (forall ((?v0 S2)) (= (f42 (f43 f44 f58) ?v0) f58)))
(assert (forall ((?v0 S2)) (=> (=> (= ?v0 f8) false) (= (f3 f8 ?v0) f1))))
(check-sat)
(exit)
